70
1228
35
0 1
0 3
0 4
0 6
0 7
0 8
0 9
0 10
0 12
0 14
0 15
0 18
0 20
0 22
0 27
0 28
0 29
0 30
0 32
0 35
0 36
0 37
0 39
0 43
0 44
0 45
0 47
0 48
0 49
0 50
0 51
0 52
0 55
0 56
0 59
0 60
0 62
0 63
0 64
0 65
0 66
0 67
0 68
1 3
1 4
1 5
1 9
1 13
1 15
1 17
1 21
1 22
1 23
1 24
1 27
1 34
1 36
1 37
1 38
1 39
1 43
1 45
1 47
1 54
1 55
1 56
1 57
1 61
1 62
1 63
1 65
1 67
2 3
2 5
2 7
2 9
2 12
2 14
2 16
2 20
2 22
2 23
2 25
2 28
2 29
2 30
2 31
2 32
2 34
2 38
2 39
2 40
2 41
2 42
2 44
2 46
2 48
2 49
2 50
2 52
2 53
2 54
2 55
2 57
2 59
2 62
2 64
2 65
2 66
2 69
3 4
3 6
3 7
3 11
3 14
3 16
3 20
3 23
3 26
3 30
3 31
3 33
3 34
3 35
3 36
3 42
3 43
3 44
3 45
3 47
3 48
3 51
3 53
3 55
3 56
3 57
3 58
3 59
3 60
3 62
3 64
3 65
4 5
4 6
4 7
4 8
4 9
4 12
4 14
4 15
4 16
4 19
4 22
4 23
4 25
4 28
4 29
4 30
4 34
4 35
4 38
4 39
4 40
4 42
4 43
4 44
4 46
4 47
4 49
4 53
4 56
4 57
4 58
4 60
4 61
4 62
4 63
4 64
4 69
5 6
5 7
5 10
5 12
5 13
5 15
5 16
5 17
5 19
5 20
5 22
5 26
5 27
5 29
5 34
5 35
5 36
5 37
5 38
5 39
5 41
5 42
5 44
5 45
5 49
5 51
5 52
5 55
5 56
5 57
5 58
5 60
5 61
5 62
5 68
6 7
6 8
6 10
6 14
6 17
6 18
6 22
6 23
6 24
6 25
6 26
6 29
6 31
6 33
6 35
6 36
6 37
6 38
6 45
6 46
6 47
6 48
6 49
6 52
6 54
6 56
6 57
6 58
6 59
6 60
6 64
6 65
6 66
7 9
7 11
7 14
7 16
7 17
7 19
7 20
7 21
7 22
7 25
7 27
7 28
7 29
7 30
7 32
7 38
7 40
7 42
7 43
7 47
7 48
7 51
7 53
7 56
7 57
7 59
7 61
7 62
7 64
7 65
7 66
7 67
7 68
7 69
8 11
8 13
8 15
8 17
8 18
8 21
8 26
8 29
8 30
8 31
8 33
8 35
8 36
8 37
8 38
8 39
8 40
8 42
8 43
8 46
8 47
8 49
8 50
8 52
8 53
8 54
8 55
8 56
8 57
8 61
8 63
8 64
8 66
8 68
8 69
9 10
9 11
9 12
9 13
9 15
9 17
9 20
9 21
9 22
9 24
9 29
9 30
9 31
9 32
9 33
9 34
9 36
9 37
9 40
9 41
9 44
9 47
9 50
9 52
9 54
9 56
9 57
9 58
9 63
9 65
9 67
9 68
9 69
10 11
10 12
10 18
10 19
10 20
10 22
10 24
10 26
10 27
10 30
10 32
10 33
10 35
10 36
10 39
10 40
10 42
10 45
10 46
10 47
10 48
10 49
10 50
10 51
10 53
10 55
10 56
10 57
10 58
10 59
10 60
10 62
10 64
10 67
10 69
11 12
11 17
11 18
11 22
11 25
11 26
11 27
11 28
11 29
11 30
11 31
11 33
11 36
11 41
11 46
11 47
11 48
11 49
11 50
11 51
11 52
11 53
11 54
11 55
11 57
11 58
11 59
11 60
11 63
11 65
11 68
12 13
12 14
12 15
12 18
12 20
12 23
12 24
12 25
12 26
12 27
12 28
12 35
12 40
12 41
12 45
12 46
12 48
12 49
12 50
12 56
12 57
12 59
12 61
12 63
12 66
12 67
12 68
12 69
13 15
13 16
13 18
13 19
13 21
13 23
13 25
13 27
13 29
13 31
13 33
13 37
13 38
13 41
13 43
13 44
13 46
13 47
13 49
13 50
13 53
13 57
13 60
13 61
13 62
13 63
13 67
13 69
14 15
14 16
14 17
14 19
14 20
14 21
14 22
14 23
14 24
14 25
14 26
14 29
14 31
14 32
14 37
14 38
14 39
14 42
14 43
14 51
14 53
14 54
14 55
14 57
14 61
14 62
14 63
14 65
14 67
14 68
14 69
15 16
15 18
15 19
15 24
15 28
15 29
15 30
15 32
15 34
15 37
15 39
15 42
15 44
15 47
15 48
15 50
15 55
15 56
15 60
15 61
15 62
15 63
15 64
15 66
15 69
16 24
16 31
16 33
16 34
16 36
16 40
16 44
16 45
16 47
16 49
16 50
16 51
16 53
16 54
16 57
16 58
16 59
16 60
16 61
16 62
16 63
16 64
16 68
16 69
17 18
17 20
17 22
17 23
17 26
17 29
17 32
17 35
17 37
17 38
17 39
17 40
17 42
17 44
17 46
17 49
17 50
17 53
17 55
17 57
17 59
17 60
17 63
18 20
18 25
18 27
18 30
18 31
18 32
18 34
18 35
18 36
18 39
18 40
18 41
18 43
18 44
18 46
18 48
18 49
18 52
18 53
18 54
18 56
18 60
18 61
18 63
18 65
18 66
18 68
19 22
19 23
19 25
19 26
19 27
19 29
19 31
19 34
19 37
19 38
19 41
19 42
19 44
19 48
19 49
19 51
19 53
19 55
19 57
19 59
19 60
19 62
19 64
19 65
19 68
20 22
20 25
20 27
20 33
20 34
20 36
20 37
20 39
20 42
20 43
20 46
20 48
20 50
20 52
20 54
20 55
20 58
20 59
20 63
20 64
20 65
20 66
20 67
20 68
21 25
21 27
21 28
21 31
21 35
21 36
21 38
21 40
21 43
21 47
21 48
21 49
21 50
21 51
21 52
21 57
21 61
21 63
21 65
21 66
22 23
22 24
22 28
22 34
22 38
22 40
22 41
22 43
22 46
22 48
22 51
22 54
22 55
22 58
22 63
22 64
22 68
23 24
23 25
23 27
23 28
23 32
23 36
23 37
23 38
23 39
23 40
23 41
23 42
23 43
23 44
23 45
23 46
23 49
23 53
23 54
23 58
23 60
23 63
23 67
23 68
23 69
24 25
24 27
24 28
24 29
24 32
24 33
24 35
24 36
24 38
24 39
24 42
24 43
24 44
24 49
24 51
24 54
24 57
24 62
24 63
24 68
25 27
25 28
25 30
25 31
25 34
25 37
25 38
25 39
25 40
25 41
25 43
25 44
25 45
25 48
25 52
25 53
25 54
25 55
25 60
25 62
25 63
25 67
26 27
26 28
26 31
26 32
26 38
26 39
26 40
26 42
26 44
26 48
26 50
26 51
26 52
26 53
26 54
26 55
26 56
26 57
26 58
26 59
26 62
26 63
26 64
26 65
26 69
27 28
27 29
27 30
27 31
27 33
27 36
27 40
27 44
27 46
27 47
27 49
27 51
27 57
27 58
27 59
27 60
27 62
27 64
27 65
27 66
27 68
27 69
28 29
28 31
28 35
28 36
28 37
28 38
28 40
28 41
28 42
28 43
28 44
28 45
28 46
28 49
28 53
28 54
28 55
28 56
28 57
28 59
28 67
28 68
28 69
29 31
29 32
29 36
29 37
29 38
29 40
29 41
29 42
29 44
29 48
29 49
29 50
29 51
29 52
29 54
29 55
29 56
29 59
29 60
29 62
29 63
29 64
29 66
29 68
29 69
30 31
30 32
30 33
30 38
30 40
30 42
30 43
30 47
30 49
30 50
30 52
30 59
30 61
31 35
31 38
31 40
31 42
31 43
31 44
31 45
31 47
31 48
31 54
31 57
31 60
31 61
31 62
31 64
31 65
31 66
31 68
32 33
32 34
32 35
32 36
32 37
32 39
32 40
32 44
32 47
32 49
32 52
32 53
32 58
32 59
32 64
32 69
33 34
33 38
33 39
33 45
33 46
33 49
33 52
33 53
33 54
33 56
33 57
33 58
33 59
33 63
33 68
34 35
34 36
34 37
34 38
34 40
34 41
34 43
34 45
34 47
34 49
34 53
34 54
34 55
34 58
34 60
34 61
34 62
34 63
34 64
34 65
34 67
34 68
34 69
35 40
35 41
35 44
35 45
35 49
35 52
35 53
35 54
35 58
35 60
35 61
35 62
35 63
35 64
35 65
35 67
36 37
36 43
36 45
36 46
36 47
36 49
36 54
36 58
36 59
36 64
36 67
36 68
37 38
37 43
37 44
37 45
37 46
37 49
37 50
37 53
37 54
37 59
37 62
37 65
37 66
38 44
38 47
38 50
38 51
38 52
38 53
38 54
38 57
38 58
38 60
38 61
38 65
38 66
38 68
38 69
39 41
39 42
39 48
39 53
39 54
39 56
39 59
39 60
39 61
39 62
39 63
39 65
39 66
40 41
40 43
40 44
40 46
40 47
40 48
40 50
40 51
40 53
40 54
40 55
40 56
40 58
40 59
40 61
40 66
40 69
41 44
41 46
41 47
41 48
41 49
41 50
41 51
41 52
41 53
41 54
41 55
41 56
41 57
41 58
41 59
41 60
41 67
41 68
42 45
42 47
42 48
42 54
42 56
42 59
42 62
42 64
42 67
42 68
42 69
43 46
43 51
43 52
43 55
43 56
43 57
43 58
43 59
43 61
43 62
43 64
43 68
44 47
44 48
44 50
44 51
44 52
44 54
44 55
44 56
44 57
44 61
44 66
45 47
45 48
45 50
45 51
45 53
45 55
45 56
45 60
45 62
45 63
45 66
45 67
46 48
46 49
46 50
46 51
46 53
46 55
46 56
46 58
47 49
47 55
47 56
47 58
47 59
47 60
47 62
47 63
47 66
47 67
47 68
47 69
48 52
48 53
48 54
48 56
48 57
48 60
48 61
48 62
48 63
48 64
48 65
48 66
48 68
48 69
49 52
49 53
49 56
49 59
49 60
49 61
49 62
49 65
49 67
49 68
49 69
50 55
50 59
50 61
50 62
50 63
50 64
50 65
50 68
51 54
51 55
51 56
51 57
51 58
51 61
51 63
51 65
51 66
51 67
51 69
52 56
52 58
52 60
52 62
52 63
52 65
52 67
52 69
53 54
53 55
53 57
53 62
53 66
53 67
54 55
54 59
54 60
54 61
54 62
54 63
54 65
54 66
55 59
55 60
55 65
55 67
55 68
55 69
56 58
56 60
56 61
56 64
56 67
57 59
57 60
57 61
57 64
57 65
57 66
57 67
57 68
57 69
58 59
58 60
58 62
58 63
58 64
58 66
58 67
58 69
59 60
59 62
59 64
59 65
59 67
59 69
60 61
60 62
60 65
60 67
60 68
61 63
61 69
62 64
62 65
62 67
63 65
63 67
63 68
64 66
64 67
65 66
65 68
65 69
66 67
66 68
66 69
67 68
67 69
68 69
33 47
63 67
4 14
52 68
12 32
36 40
19 30
3 15
49 69
2 23
16 21
31 41
6 58
37 56
18 29
8 44
25 35
13 34
0 45
10 53
51 57
55 60
24 27
17 43
9 20
5 11
26 42
48 64
46 50
39 66
59 62
7 38
1 54
22 28
61 65
